Version identifier: 22.1.0.0 | 2022-03-09 | 1a383f8ce
CPXPARAM_Read_DataCheck                          1
CPXPARAM_Threads                                 1
CPXPARAM_TimeLimit                               3600
Tried aggregator 2 times.
MIP Presolve eliminated 605 rows and 62 columns.
MIP Presolve modified 3872 coefficients.
Aggregator did 28 substitutions.
Reduced MIP has 798 rows, 150 columns, and 4732 nonzeros.
Reduced MIP has 105 binaries, 0 generals, 0 SOSs, and 0 indicators.
Presolve time = 0.01 sec. (8.02 ticks)
Found incumbent of value 115.355892 after 0.02 sec. (12.14 ticks)
Probing fixed 7 vars, tightened 0 bounds.
Probing time = 0.00 sec. (1.23 ticks)
Tried aggregator 1 time.
Detecting symmetries...
MIP Presolve eliminated 19 rows and 7 columns.
MIP Presolve modified 1 coefficients.
Reduced MIP has 779 rows, 143 columns, and 4611 nonzeros.
Reduced MIP has 98 binaries, 0 generals, 0 SOSs, and 0 indicators.
Presolve time = 0.01 sec. (2.65 ticks)
Probing time = 0.00 sec. (1.18 ticks)
Clique table members: 304.
MIP emphasis: balance optimality and feasibility.
MIP search method: dynamic search.
Parallel mode: none, using 1 thread.
Root relaxation solution time = 0.00 sec. (2.25 ticks)

        Nodes                                         Cuts/
   Node  Left     Objective  IInf  Best Integer    Best Bound    ItCnt     Gap

*     0+    0                          115.3559       82.1158            28.82%
      0     0       82.1158    35      115.3559       82.1158       85   28.82%
      0     0       82.1158    19      115.3559      Cuts: 45      137   28.82%
      0     0       82.1158    25      115.3559      Cuts: 85      215   28.82%
      0     0       82.1162    24      115.3559      Cuts: 57      367   28.81%
*     0+    0                          104.3123       82.1162            21.28%
      0     0  -1.00000e+75     0      104.3123       82.1162      367   21.28%
Detecting symmetries...
      0     2       82.1162    21      104.3123       82.1163      367   21.28%
Elapsed time = 0.15 sec. (89.81 ticks, tree = 0.01 MB, solutions = 2)
*    60+   37                           87.0256       82.3257             5.40%
*    72    40      integral     0       86.0228       82.3257     1291    4.30%
*   116    57      integral     0       85.5427       82.4886     2199    3.57%
*   140+   33                           84.6643       82.5591             2.49%
*   176    33      integral     0       84.3274       82.5805     3476    2.07%
*   220    34      integral     0       83.9186       82.7033     4592    1.45%
*   226    33      integral     0       83.8816       82.7033     4627    1.40%

GUB cover cuts applied:  3
Clique cuts applied:  2
Cover cuts applied:  45
Implied bound cuts applied:  52
Flow cuts applied:  1
Mixed integer rounding cuts applied:  26
Zero-half cuts applied:  1
Gomory fractional cuts applied:  2

Root node processing (before b&c):
  Real time             =    0.15 sec. (89.82 ticks)
Sequential b&c:
  Real time             =    0.25 sec. (198.77 ticks)
                          ------------
Total (root+branch&cut) =    0.40 sec. (288.60 ticks)
